; benchmark generated from python API
(set-info :status unknown)
(declare-fun x_month () Int)
(declare-fun x_day () Int)
(declare-fun x_year () Int)
(assert
 (>= x_month 1))
(assert
 (<= x_month 12))
(assert
 (>= x_day 1))
(assert
 (<= x_day 31))
(assert
 (let (($x528 (<= x_day 28)))
 (let (($x516 (<= x_day 29)))
 (let (($x443 (= (mod x_year 400) 0)))
 (let (($x730 (= (mod x_year 4) 0)))
 (let (($x728 (ite (or (and $x730 (and (distinct (mod x_year 100) 0) true)) $x443) $x516 $x528)))
 (let (($x113 (= x_month 2)))
 (ite $x113 $x728 true))))))))
(assert
 (let (($x216 (<= x_day 30)))
 (let (($x604 (or (= x_month 4) (= x_month 6) (= x_month 9) (= x_month 11))))
 (ite $x604 $x216 true))))
(assert
 (let (($x753 (= x_year 2023)))
 (let (($x134 (and $x753 (or (> x_month 1) (and (= x_month 1) (>= x_day 1))))))
 (or (> x_year 2023) $x134))))
(assert
 (let (($x29 (or (and (= (mod 2000 4) 0) (and (distinct (mod 2000 100) 0) true)) (= (mod 2000 400) 0))))
(let ((?x36 (ite (= 3 2) (ite $x29 31 31) (ite (= 3 1) (ite $x29 0 0) 0))))
(let ((?x40 (ite $x29 60 59)))
(let ((?x41 (ite (= 3 3) ?x40 ?x36)))
(let ((?x46 (ite (= 3 4) (ite $x29 91 90) ?x41)))
(let ((?x52 (ite (= 3 5) (ite $x29 121 120) ?x46)))
(let ((?x58 (ite (= 3 6) (ite $x29 152 151) ?x52)))
(let ((?x64 (ite (= 3 7) (ite $x29 182 181) ?x58)))
(let ((?x70 (ite (= 3 8) (ite $x29 213 212) ?x64)))
(let ((?x76 (ite (= 3 9) (ite $x29 244 243) ?x70)))
(let ((?x82 (ite (= 3 10) (ite $x29 274 273) ?x76)))
(let ((?x88 (ite (= 3 11) (ite $x29 305 304) ?x82)))
(let ((?x16 (- (+ (* 365 (- 2000 1)) (div (- 2000 1) 4)) (div (- 2000 1) 100))))
(let ((?x95 (+ (+ ?x16 (div (- 2000 1) 400)) (ite (= 3 12) (ite $x29 335 334) ?x88))))
(let ((?x97 (+ ?x95 (- 1 1))))
(let ((?x362 (+ (mod (- (+ x_month (+ (* 0 12) 0)) 1) 12) 1)))
(let ((?x558 (ite (or (= ?x362 4) (= ?x362 6) (= ?x362 9) (= ?x362 11)) 30 31)))
(let ((?x304 (+ 0 (div (- (+ x_month (+ (* 0 12) 0)) 1) 12))))
(let ((?x369 (+ x_year ?x304)))
(let (($x295 (or (and (= (mod ?x369 4) 0) (and (distinct (mod ?x369 100) 0) true)) (= (mod ?x369 400) 0))))
(let ((?x375 (ite (= ?x362 2) (ite $x295 29 28) ?x558)))
(let (($x638 (< x_day 1)))
(let ((?x656 (ite $x638 1 (ite (> x_day ?x375) ?x375 x_day))))
(let ((?x137 (ite (< ?x656 1) 1 (ite (> ?x656 ?x375) ?x375 ?x656))))
(let ((?x332 (ite (= 2 ?x362) (ite $x295 31 31) (ite (= 1 ?x362) (ite $x295 0 0) 0))))
(let ((?x644 (ite (= 4 ?x362) (ite $x295 91 90) (ite (= 3 ?x362) (ite $x295 60 59) ?x332))))
(let ((?x392 (ite (= 6 ?x362) (ite $x295 152 151) (ite (= 5 ?x362) (ite $x295 121 120) ?x644))))
(let ((?x398 (ite (= 8 ?x362) (ite $x295 213 212) (ite (= 7 ?x362) (ite $x295 182 181) ?x392))))
(let ((?x450 (ite (= 10 ?x362) (ite $x295 274 273) (ite (= 9 ?x362) (ite $x295 244 243) ?x398))))
(let ((?x409 (ite (= 12 ?x362) (ite $x295 335 334) (ite (= 11 ?x362) (ite $x295 305 304) ?x450))))
(let ((?x2053 (- (+ (* 365 (- ?x369 1)) (div (- ?x369 1) 4)) (div (- ?x369 1) 100))))
(let ((?x489 (- (+ (+ (+ ?x2053 (div (- ?x369 1) 400)) ?x409) (- ?x137 1)) ?x97)))
(let ((?x485 (+ (+ ?x489 31) ?x97)))
(let ((?x454 (mod ?x485 146097)))
(let ((?x465 (div ?x454 36524)))
(let ((?x492 (ite (<= 4 ?x465) 3 ?x465)))
(let ((?x613 (- ?x454 (* ?x492 36524))))
(let ((?x523 (mod ?x613 1461)))
(let ((?x520 (div ?x523 365)))
(let ((?x815 (ite (<= 4 ?x520) 3 ?x520)))
(let ((?x838 (+ (+ (* (div ?x485 146097) 400) (* ?x492 100)) (* (div ?x613 1461) 4))))
(let ((?x814 (+ (+ ?x838 ?x815) 1)))
(let (($x844 (or (and (= (mod ?x814 4) 0) (and (distinct (mod ?x814 100) 0) true)) (= (mod ?x814 400) 0))))
(let ((?x2720 (- ?x523 (* ?x815 365))))
(let ((?x807 (ite $x844 31 31)))
(let (($x809 (>= ?x2720 ?x807)))
(let ((?x1429 (ite $x809 (+ (- ?x2720 ?x807) 1) (+ (- ?x2720 (ite $x844 0 0)) 1))))
(let ((?x2595 (ite $x844 60 59)))
(let (($x112 (>= ?x2720 ?x2595)))
(let ((?x752 (ite $x844 91 90)))
(let (($x1493 (>= ?x2720 ?x752)))
(let ((?x770 (ite $x1493 (+ (- ?x2720 ?x752) 1) (ite $x112 (+ (- ?x2720 ?x2595) 1) ?x1429))))
(let ((?x2587 (ite $x844 121 120)))
(let (($x1824 (>= ?x2720 ?x2587)))
(let ((?x1197 (ite $x844 152 151)))
(let (($x2745 (>= ?x2720 ?x1197)))
(let ((?x564 (ite $x2745 (+ (- ?x2720 ?x1197) 1) (ite $x1824 (+ (- ?x2720 ?x2587) 1) ?x770))))
(let ((?x2662 (ite $x844 182 181)))
(let (($x1198 (>= ?x2720 ?x2662)))
(let ((?x2603 (ite $x844 213 212)))
(let (($x2112 (>= ?x2720 ?x2603)))
(let ((?x799 (ite $x2112 (+ (- ?x2720 ?x2603) 1) (ite $x1198 (+ (- ?x2720 ?x2662) 1) ?x564))))
(let ((?x2964 (ite $x844 244 243)))
(let (($x790 (>= ?x2720 ?x2964)))
(let ((?x1671 (ite $x844 274 273)))
(let (($x459 (>= ?x2720 ?x1671)))
(let ((?x521 (ite $x459 (+ (- ?x2720 ?x1671) 1) (ite $x790 (+ (- ?x2720 ?x2964) 1) ?x799))))
(let ((?x854 (ite $x844 305 304)))
(let (($x464 (>= ?x2720 ?x854)))
(let ((?x719 (ite $x844 335 334)))
(let (($x517 (>= ?x2720 ?x719)))
(let ((?x606 (ite $x517 (+ (- ?x2720 ?x719) 1) (ite $x464 (+ (- ?x2720 ?x854) 1) ?x521))))
(let (($x314 (= 0 31)))
(let ((?x841 (+ (mod (- (+ x_month (+ (* 0 12) 1)) 1) 12) 1)))
(let ((?x432 (ite (or (= ?x841 4) (= ?x841 6) (= ?x841 9) (= ?x841 11)) 30 31)))
(let ((?x676 (+ 0 (div (- (+ x_month (+ (* 0 12) 1)) 1) 12))))
(let ((?x194 (+ x_year ?x676)))
(let (($x108 (or (and (= (mod ?x194 4) 0) (and (distinct (mod ?x194 100) 0) true)) (= (mod ?x194 400) 0))))
(let ((?x734 (ite (= ?x841 2) (ite $x108 29 28) ?x432)))
(let ((?x433 (ite $x638 1 (ite (> x_day ?x734) ?x734 x_day))))
(let ((?x848 (ite (< ?x433 1) 1 (ite (> ?x433 ?x734) ?x734 ?x433))))
(let ((?x267 (ite (= 2 ?x841) (ite $x108 31 31) (ite (= 1 ?x841) (ite $x108 0 0) 0))))
(let ((?x405 (ite (= 4 ?x841) (ite $x108 91 90) (ite (= 3 ?x841) (ite $x108 60 59) ?x267))))
(let ((?x177 (ite (= 6 ?x841) (ite $x108 152 151) (ite (= 5 ?x841) (ite $x108 121 120) ?x405))))
(let ((?x141 (ite (= 8 ?x841) (ite $x108 213 212) (ite (= 7 ?x841) (ite $x108 182 181) ?x177))))
(let ((?x312 (ite (= 10 ?x841) (ite $x108 274 273) (ite (= 9 ?x841) (ite $x108 244 243) ?x141))))
(let ((?x181 (ite (= 12 ?x841) (ite $x108 335 334) (ite (= 11 ?x841) (ite $x108 305 304) ?x312))))
(let ((?x501 (- (+ (* 365 (- ?x194 1)) (div (- ?x194 1) 4)) (div (- ?x194 1) 100))))
(let ((?x727 (- (+ (+ (+ ?x501 (div (- ?x194 1) 400)) ?x181) (- ?x848 1)) ?x97)))
(let ((?x265 (+ (+ ?x727 0) ?x97)))
(let ((?x115 (mod ?x265 146097)))
(let ((?x260 (div ?x115 36524)))
(let ((?x329 (ite (<= 4 ?x260) 3 ?x260)))
(let ((?x325 (- ?x115 (* ?x329 36524))))
(let ((?x480 (mod ?x325 1461)))
(let ((?x377 (div ?x480 365)))
(let ((?x331 (ite (<= 4 ?x377) 3 ?x377)))
(let ((?x133 (+ (+ (* (div ?x265 146097) 400) (* ?x329 100)) (* (div ?x325 1461) 4))))
(let ((?x326 (+ (+ ?x133 ?x331) 1)))
(let (($x575 (or (and (= (mod ?x326 4) 0) (and (distinct (mod ?x326 100) 0) true)) (= (mod ?x326 400) 0))))
(let ((?x367 (- ?x480 (* ?x331 365))))
(let ((?x239 (ite $x575 31 31)))
(let (($x301 (>= ?x367 ?x239)))
(let ((?x240 (ite $x301 (+ (- ?x367 ?x239) 1) (+ (- ?x367 (ite $x575 0 0)) 1))))
(let ((?x686 (ite $x575 60 59)))
(let (($x537 (>= ?x367 ?x686)))
(let ((?x762 (ite $x575 91 90)))
(let (($x366 (>= ?x367 ?x762)))
(let ((?x363 (ite $x366 (+ (- ?x367 ?x762) 1) (ite $x537 (+ (- ?x367 ?x686) 1) ?x240))))
(let ((?x156 (ite $x575 121 120)))
(let (($x533 (>= ?x367 ?x156)))
(let ((?x563 (ite $x575 152 151)))
(let (($x154 (>= ?x367 ?x563)))
(let ((?x568 (ite $x154 (+ (- ?x367 ?x563) 1) (ite $x533 (+ (- ?x367 ?x156) 1) ?x363))))
(let ((?x574 (ite $x575 182 181)))
(let (($x2894 (>= ?x367 ?x574)))
(let ((?x588 (ite $x575 213 212)))
(let (($x217 (>= ?x367 ?x588)))
(let ((?x500 (ite $x217 (+ (- ?x367 ?x588) 1) (ite $x2894 (+ (- ?x367 ?x574) 1) ?x568))))
(let ((?x663 (ite $x575 244 243)))
(let (($x493 (>= ?x367 ?x663)))
(let ((?x168 (ite $x575 274 273)))
(let (($x519 (>= ?x367 ?x168)))
(let ((?x541 (ite $x519 (+ (- ?x367 ?x168) 1) (ite $x493 (+ (- ?x367 ?x663) 1) ?x500))))
(let ((?x365 (ite $x575 305 304)))
(let (($x201 (>= ?x367 ?x365)))
(let ((?x2056 (ite $x575 335 334)))
(let (($x652 (>= ?x367 ?x2056)))
(let ((?x389 (ite $x652 (+ (- ?x367 ?x2056) 1) (ite $x201 (+ (- ?x367 ?x365) 1) ?x541))))
(let (($x849 (= 0 0)))
(let ((?x2663 (ite $x1824 5 (ite $x1493 4 (ite $x112 3 (ite $x809 2 1))))))
(let ((?x800 (ite $x790 9 (ite $x2112 8 (ite $x1198 7 (ite $x2745 6 ?x2663))))))
(let ((?x457 (ite $x517 12 (ite $x464 11 (ite $x459 10 ?x800)))))
(let ((?x813 (ite $x314 ?x362 ?x457)))
(let ((?x534 (ite $x533 5 (ite $x366 4 (ite $x537 3 (ite $x301 2 1))))))
(let ((?x494 (ite $x493 9 (ite $x217 8 (ite $x2894 7 (ite $x154 6 ?x534))))))
(let ((?x559 (ite $x849 ?x841 (ite $x652 12 (ite $x201 11 (ite $x519 10 ?x494))))))
(let (($x779 (or (< ?x559 ?x813) (and (= ?x559 ?x813) (<= (ite $x849 ?x848 ?x389) (ite $x314 ?x137 ?x606))))))
(let (($x780 (or (< (ite $x849 ?x194 ?x326) (ite $x314 ?x369 ?x814)) (and (= (ite $x849 ?x194 ?x326) (ite $x314 ?x369 ?x814)) $x779))))
(not $x780)))))))))))))))))))))))))))))))))))))))))))))))))))))))))))))))))))))))))))))))))))))))))))))))))))))))))))))))))))))))))))))))))))))))))))))
(check-sat)
